; benchmark generated from python API
(set-info :status unknown)
(declare-fun S_3 () Real)
(declare-fun S_4 () Real)
(declare-fun C () Real)
(declare-fun S_2 () Real)
(declare-fun S_1 () Real)
(declare-fun S_0 () Real)
(declare-fun A_0 () Real)
(declare-fun L_0 () Real)
(declare-fun L0 () Real)
(declare-fun B () Real)
(declare-fun A_1 () Real)
(declare-fun A_3 () Real)
(declare-fun L_2 () Real)
(declare-fun L_1 () Real)
(declare-fun A_2 () Real)
(declare-fun L_3 () Real)
(declare-fun A_4 () Real)
(assert
 (let (($x37 (>= L0 0.0)))
 (let (($x918 (>= C 5.0)))
 (let (($x770 (>= B 5.0)))
 (let (($x7441 (<= 0.0 (+ C (* (- 1.0) A_1) L_0 S_0))))
 (let (($x7448 (not $x7441)))
 (let (($x8085 (<= (+ (* (- 1.0) S_4) (* (- 1.0) L_0) A_1 (* 2.0 C)) 0.0)))
 (let (($x1798 (>= S_4 (+ A_3 (* (- 1.0) L_0)))))
 (let (($x733 (not (<= L_2 L_0))))
 (let (($x8191 (or $x7448 (<= (+ (* (- 1.0) L_0) A_1 (* (- 1.0) S_3) C) 0.0))))
 (let (($x1787 (>= S_4 (+ A_3 (* (- 1.0) L_1)))))
 (let (($x1019 (not (<= L_2 L_1))))
 (let (($x10644 (or $x1019 $x1787 $x7441 (<= (+ (* 3.0 C) (* (- 1.0) S_4) S_0) 0.0))))
 (let (($x10679 (or $x1019 $x1787 (<= (+ (* 2.0 C) (* (- 1.0) S_4) S_1) 0.0))))
 (let (($x2694 (>= S_4 (+ A_3 (* (- 1.0) L_2)))))
 (let (($x64 (= L_2 L_1)))
 (let (($x10807 (or $x64 (<= S_4 (+ A_2 (* (- 1.0) L_2) (* (- 1.0) B) (* 2.0 C))))))
 (let (($x4350 (= L_3 L_1)))
 (let (($x1274 (not (= L_1 L_2))))
 (let (($x1026 (<= L_1 L_0)))
 (let (($x1027 (not $x1026)))
 (let (($x7743 (or $x1027 $x1274 $x4350 (<= (+ A_2 (* (- 1.0) L_0) L_3 (* (- 1.0) A_3) C) 0.0))))
 (let (($x7717 (<= (+ A_1 (* (- 1.0) L_0) L_3 (* (- 1.0) A_3) (* 2.0 C)) 0.0)))
 (let (($x725 (not (= L_0 L_1))))
 (let (($x74 (= L_3 L_2)))
 (let ((?x943 (* (- 2.0) C)))
 (let ((?x276 (* (- 1.0) L_3)))
 (let ((?x233 (* (- 1.0) B)))
 (let ((?x7600 (+ ?x233 ?x276 A_3 ?x943)))
 (let ((?x216 (* (- 1.0) L_0)))
 (let ((?x1085 (+ A_1 ?x216)))
 (let (($x7633 (<= ?x1085 ?x7600)))
 (let (($x10670 (or (= (+ ?x943 ?x233 ?x276 (* (- 1.0) A_1) A_3 L_0) 0.0) (not $x7633))))
 (let (($x7534 (<= (+ A_3 (* (- 1.0) A_2) (* (- 1.0) C)) 0.0)))
 (let (($x1017 (not (<= L_3 L_2))))
 (let (($x54 (= L_1 L_0)))
 (let ((?x369 (* (- 1.0) A_1)))
 (let ((?x259 (* (- 1.0) L_2)))
 (let ((?x300 (* (- 1.0) C)))
 (let (($x8150 (or (= (+ ?x300 A_2 ?x259 ?x233 ?x369 L_0) 0.0) (not (<= ?x1085 (+ ?x233 ?x259 A_2 ?x300))))))
 (let (($x2550 (= L_2 L_0)))
 (let (($x7437 (or $x725 $x2550 (<= (+ A_1 ?x216 L_2 (* (- 1.0) A_2) C) 0.0))))
 (let (($x7327 (or $x54 $x74 (= (+ A_3 ?x276) (+ A_1 (* (- 1.0) L_1) (* 2.0 C))))))
 (let (($x36 (>= L_0 L0)))
 (let (($x111 (>= S_1 S_0)))
 (let (($x114 (>= S_2 S_1)))
 (let (($x117 (>= S_3 S_2)))
 (let (($x122 (>= A_1 A_0)))
 (let (($x124 (>= A_3 A_2)))
 (let (($x125 (>= A_4 A_3)))
 (and (<= (+ A_2 ?x259) S_4) (<= (+ A_1 (* (- 1.0) L_1)) S_3) (not (<= (+ A_2 ?x259) S_3)) $x125 $x124 $x122 $x117 $x114 $x111 $x36 (or $x74 (<= S_3 (+ A_3 ?x276 ?x233))) (>= S_3 (+ A_2 ?x259 ?x233)) (>= S_2 (+ A_1 (* (- 1.0) L_1) ?x233)) (or $x64 $x1019) (or $x54 $x1027) (or $x64 (<= S_2 (+ A_2 ?x259 ?x233))) (<= (+ ?x233 (* (- 1.0) L_1) A_1 ?x300) (+ A_0 ?x216)) (>= S_0 (+ ?x233 (* (- 1.0) L_1) A_1 ?x943)) (>= S_1 (+ ?x233 (* (- 1.0) L_1) A_1 ?x300)) (or $x74 (<= S_4 (+ A_3 ?x276 ?x233 C))) (or $x54 (<= S_1 (+ A_1 (* (- 1.0) L_1) ?x233))) (or $x54 (<= S_2 (+ A_1 (* (- 1.0) L_1) ?x233 C))) (or $x54 (<= S_0 (+ ?x233 (* (- 1.0) L_1) A_1 ?x300))) (or $x54 (<= S_3 (+ A_1 (* (- 1.0) L_1) ?x233 (* 2.0 C)))) (>= S_4 (+ A_3 ?x276 ?x233)) $x7327 (or $x733 $x1798 (>= S_4 (+ A_1 ?x216 ?x233 (* 2.0 C)))) (>= S_3 (+ A_1 (* (- 1.0) L_1) ?x233 C)) (or $x64 $x1026 (= (+ A_2 ?x259) (+ A_1 (* (- 1.0) L_1) C))) (or $x2694 (>= S_4 (+ A_1 (* (- 1.0) L_1) ?x233 (* 2.0 C)))) (or $x54 $x1019 (<= (+ A_2 ?x369 ?x300) 0.0)) $x7437 (or (<= (+ (* 2.0 C) (* (- 1.0) S_3) S_0) 0.0) $x7441) (or $x2550 $x7448 (<= ?x1085 (+ ?x233 ?x259 A_2 ?x300))) (or $x1274 (>= S_2 (+ ?x233 (* (- 1.0) L_1) A_2 ?x300))) (>= S_2 (+ ?x233 ?x259 A_2 ?x300)) (or (<= (+ C (* (- 1.0) S_2) S_0) 0.0) $x7441) (or $x64 (<= S_1 (+ ?x233 ?x259 A_2 ?x300))) (<= (+ ?x233 ?x259 A_2 ?x943) (+ A_0 ?x216)) (or $x64 $x7441 (<= S_0 (+ ?x233 ?x259 A_2 ?x943))) $x8150 (>= S_1 (+ ?x233 ?x259 A_2 ?x943)) (or $x74 $x1017) (<= S_4 (+ A_4 ?x276)) (or $x64 $x1017 $x7534) (or $x54 (<= S_4 (+ A_1 (* (- 1.0) L_1) ?x233 (* 3.0 C)))) (or $x54 $x1017 (<= (+ A_3 ?x369 ?x943) 0.0) $x7534) (or $x64 $x74 (= (+ A_3 ?x276) (+ A_2 ?x259 C))) (>= S_0 (+ ?x233 ?x259 A_2 (* (- 3.0) C))) (<= (+ ?x300 L_0 (* (- 1.0) A_0) S_1) 0.0) (or $x64 (<= S_3 (+ A_2 ?x259 ?x233 C))) (<= S_4 (+ A_3 ?x259 C)) (>= S_1 (+ ?x233 ?x276 A_3 (* (- 3.0) C))) $x10670 (<= (+ L_0 ?x369 ?x300 S_2) 0.0) (<= (+ ?x369 L_0 S_1) 0.0) (or $x74 (<= S_1 ?x7600)) (or $x74 (<= S_2 (+ ?x233 ?x276 A_3 ?x300))) (<= (+ ?x233 ?x276 A_3 (* (- 3.0) C)) (+ A_0 ?x216)) (>= S_3 (+ ?x233 ?x276 A_3 ?x300)) (or $x74 $x7441 (<= S_0 (+ ?x233 ?x276 A_3 (* (- 3.0) C)))) (or $x74 $x7448 $x7633) (or $x74 $x725 $x7717) (>= S_2 ?x7600) $x7743 (>= S_0 (+ ?x233 ?x276 A_3 (* (- 4.0) C))) $x10807 (or $x2694 (>= S_4 (+ A_2 ?x259 ?x233 C))) (<= (+ ?x943 L_0 (* (- 1.0) A_0) S_2) 0.0) (<= (+ ?x943 S_2 (* (- 1.0) S_1)) 0.0) (or $x1019 $x1787 (<= (+ C (* (- 1.0) S_4) S_2) 0.0)) (<= (+ (* (- 4.0) C) S_4 (* (- 1.0) S_1)) 0.0) (<= (+ (* (- 5.0) C) S_4 (* (- 1.0) S_0)) 0.0) (<= (+ (* (- 4.0) C) L_0 S_4 (* (- 1.0) A_0)) 0.0) $x10679 (<= (+ S_4 L_0 ?x369 (* (- 3.0) C)) 0.0) (<= (+ (* (- 3.0) C) S_2 (* (- 1.0) S_0)) 0.0) $x10644 (<= (+ (* (- 3.0) C) S_3 (* (- 1.0) S_1)) 0.0) $x8191 (or $x733 $x1798 $x7448 $x8085) (<= (+ (* (- 3.0) C) L_0 S_3 (* (- 1.0) A_0)) 0.0) (<= (+ (* (- 4.0) C) S_3 (* (- 1.0) S_0)) 0.0) (<= (+ L_0 ?x369 S_3 ?x943) 0.0) (<= (+ ?x943 S_1 (* (- 1.0) S_0)) 0.0) (or (<= (+ A_1 ?x216 (* (- 1.0) S_2)) 0.0) $x7448) $x770 $x918 $x37 (<= (+ L_0 (* (- 1.0) A_0) S_0) 0.0) (<= (+ C (* (- 1.0) S_3) S_1) 0.0) (<= (+ ?x943 S_3 (* (- 1.0) S_2)) 0.0) (<= (+ (* (- 3.0) C) S_4 (* (- 1.0) S_2)) 0.0) (<= (+ ?x943 S_4 (* (- 1.0) S_3)) 0.0))))))))))))))))))))))))))))))))))))))))))))))))))))
(check-sat)
